MARKOV
47
3 3 3 3 3 3 3 3 3 3 3 3 3 3 3 3 3 3 3 3 3 3 3 3 3 3 3 3 3 3 3 3 3 3 3 3 3 3 3 3 3 3 3 3 3 3 3
236
2 0 1
2 0 3
2 0 6
2 0 8
2 0 12
2 0 14
2 0 17
2 0 19
2 0 24
2 0 26
2 0 29
2 0 31
2 0 35
2 0 37
2 0 40
2 0 42
2 1 2
2 1 5
2 1 7
2 1 11
2 1 13
2 1 16
2 1 18
2 1 23
2 1 25
2 1 28
2 1 30
2 1 34
2 1 36
2 1 39
2 1 41
2 2 4
2 2 6
2 2 9
2 2 12
2 2 15
2 2 17
2 2 20
2 2 24
2 2 27
2 2 29
2 2 32
2 2 35
2 2 38
2 2 40
2 2 43
2 3 4
2 3 5
2 3 9
2 3 11
2 3 15
2 3 16
2 3 20
2 3 23
2 3 27
2 3 28
2 3 32
2 3 34
2 3 38
2 3 39
2 3 43
2 4 7
2 4 8
2 4 13
2 4 14
2 4 18
2 4 19
2 4 25
2 4 26
2 4 30
2 4 31
2 4 36
2 4 37
2 4 41
2 4 42
2 5 10
2 5 12
2 5 14
2 5 21
2 5 24
2 5 26
2 5 33
2 5 35
2 5 37
2 5 44
2 6 10
2 6 11
2 6 13
2 6 21
2 6 23
2 6 25
2 6 33
2 6 34
2 6 36
2 6 44
2 7 10
2 7 12
2 7 15
2 7 21
2 7 24
2 7 27
2 7 33
2 7 35
2 7 38
2 7 44
2 8 10
2 8 11
2 8 15
2 8 21
2 8 23
2 8 27
2 8 33
2 8 34
2 8 38
2 8 44
2 9 10
2 9 13
2 9 14
2 9 21
2 9 25
2 9 26
2 9 33
2 9 36
2 9 37
2 9 44
2 10 16
2 10 17
2 10 18
2 10 19
2 10 20
2 10 28
2 10 29
2 10 30
2 10 31
2 10 32
2 10 39
2 10 40
2 10 41
2 10 42
2 10 43
2 11 22
2 11 24
2 11 26
2 11 29
2 11 31
2 11 45
2 12 22
2 12 23
2 12 25
2 12 28
2 12 30
2 12 45
2 13 22
2 13 24
2 13 27
2 13 29
2 13 32
2 13 45
2 14 22
2 14 23
2 14 27
2 14 28
2 14 32
2 14 45
2 15 22
2 15 25
2 15 26
2 15 30
2 15 31
2 15 45
2 16 22
2 16 24
2 16 26
2 16 33
2 16 45
2 17 22
2 17 23
2 17 25
2 17 33
2 17 45
2 18 22
2 18 24
2 18 27
2 18 33
2 18 45
2 19 22
2 19 23
2 19 27
2 19 33
2 19 45
2 20 22
2 20 25
2 20 26
2 20 33
2 20 45
2 21 22
2 21 28
2 21 29
2 21 30
2 21 31
2 21 32
2 21 45
2 22 34
2 22 35
2 22 36
2 22 37
2 22 38
2 22 39
2 22 40
2 22 41
2 22 42
2 22 43
2 22 44
2 23 46
2 24 46
2 25 46
2 26 46
2 27 46
2 28 46
2 29 46
2 30 46
2 31 46
2 32 46
2 33 46
2 34 46
2 35 46
2 36 46
2 37 46
2 38 46
2 39 46
2 40 46
2 41 46
2 42 46
2 43 46
2 44 46
2 45 46
9
0.0001
1.0
1.0
1.0
0.0001
1.0
1.0
1.0
0.0001

9
0.0001
1.0
1.0
1.0
0.0001
1.0
1.0
1.0
0.0001

9
0.0001
1.0
1.0
1.0
0.0001
1.0
1.0
1.0
0.0001

9
0.0001
1.0
1.0
1.0
0.0001
1.0
1.0
1.0
0.0001

9
0.0001
1.0
1.0
1.0
0.0001
1.0
1.0
1.0
0.0001

9
0.0001
1.0
1.0
1.0
0.0001
1.0
1.0
1.0
0.0001

9
0.0001
1.0
1.0
1.0
0.0001
1.0
1.0
1.0
0.0001

9
0.0001
1.0
1.0
1.0
0.0001
1.0
1.0
1.0
0.0001

9
0.0001
1.0
1.0
1.0
0.0001
1.0
1.0
1.0
0.0001

9
0.0001
1.0
1.0
1.0
0.0001
1.0
1.0
1.0
0.0001

9
0.0001
1.0
1.0
1.0
0.0001
1.0
1.0
1.0
0.0001

9
0.0001
1.0
1.0
1.0
0.0001
1.0
1.0
1.0
0.0001

9
0.0001
1.0
1.0
1.0
0.0001
1.0
1.0
1.0
0.0001

9
0.0001
1.0
1.0
1.0
0.0001
1.0
1.0
1.0
0.0001

9
0.0001
1.0
1.0
1.0
0.0001
1.0
1.0
1.0
0.0001

9
0.0001
1.0
1.0
1.0
0.0001
1.0
1.0
1.0
0.0001

9
0.0001
1.0
1.0
1.0
0.0001
1.0
1.0
1.0
0.0001

9
0.0001
1.0
1.0
1.0
0.0001
1.0
1.0
1.0
0.0001

9
0.0001
1.0
1.0
1.0
0.0001
1.0
1.0
1.0
0.0001

9
0.0001
1.0
1.0
1.0
0.0001
1.0
1.0
1.0
0.0001

9
0.0001
1.0
1.0
1.0
0.0001
1.0
1.0
1.0
0.0001

9
0.0001
1.0
1.0
1.0
0.0001
1.0
1.0
1.0
0.0001

9
0.0001
1.0
1.0
1.0
0.0001
1.0
1.0
1.0
0.0001

9
0.0001
1.0
1.0
1.0
0.0001
1.0
1.0
1.0
0.0001

9
0.0001
1.0
1.0
1.0
0.0001
1.0
1.0
1.0
0.0001

9
0.0001
1.0
1.0
1.0
0.0001
1.0
1.0
1.0
0.0001

9
0.0001
1.0
1.0
1.0
0.0001
1.0
1.0
1.0
0.0001

9
0.0001
1.0
1.0
1.0
0.0001
1.0
1.0
1.0
0.0001

9
0.0001
1.0
1.0
1.0
0.0001
1.0
1.0
1.0
0.0001

9
0.0001
1.0
1.0
1.0
0.0001
1.0
1.0
1.0
0.0001

9
0.0001
1.0
1.0
1.0
0.0001
1.0
1.0
1.0
0.0001

9
0.0001
1.0
1.0
1.0
0.0001
1.0
1.0
1.0
0.0001

9
0.0001
1.0
1.0
1.0
0.0001
1.0
1.0
1.0
0.0001

9
0.0001
1.0
1.0
1.0
0.0001
1.0
1.0
1.0
0.0001

9
0.0001
1.0
1.0
1.0
0.0001
1.0
1.0
1.0
0.0001

9
0.0001
1.0
1.0
1.0
0.0001
1.0
1.0
1.0
0.0001

9
0.0001
1.0
1.0
1.0
0.0001
1.0
1.0
1.0
0.0001

9
0.0001
1.0
1.0
1.0
0.0001
1.0
1.0
1.0
0.0001

9
0.0001
1.0
1.0
1.0
0.0001
1.0
1.0
1.0
0.0001

9
0.0001
1.0
1.0
1.0
0.0001
1.0
1.0
1.0
0.0001

9
0.0001
1.0
1.0
1.0
0.0001
1.0
1.0
1.0
0.0001

9
0.0001
1.0
1.0
1.0
0.0001
1.0
1.0
1.0
0.0001

9
0.0001
1.0
1.0
1.0
0.0001
1.0
1.0
1.0
0.0001

9
0.0001
1.0
1.0
1.0
0.0001
1.0
1.0
1.0
0.0001

9
0.0001
1.0
1.0
1.0
0.0001
1.0
1.0
1.0
0.0001

9
0.0001
1.0
1.0
1.0
0.0001
1.0
1.0
1.0
0.0001

9
0.0001
1.0
1.0
1.0
0.0001
1.0
1.0
1.0
0.0001

9
0.0001
1.0
1.0
1.0
0.0001
1.0
1.0
1.0
0.0001

9
0.0001
1.0
1.0
1.0
0.0001
1.0
1.0
1.0
0.0001

9
0.0001
1.0
1.0
1.0
0.0001
1.0
1.0
1.0
0.0001

9
0.0001
1.0
1.0
1.0
0.0001
1.0
1.0
1.0
0.0001

9
0.0001
1.0
1.0
1.0
0.0001
1.0
1.0
1.0
0.0001

9
0.0001
1.0
1.0
1.0
0.0001
1.0
1.0
1.0
0.0001

9
0.0001
1.0
1.0
1.0
0.0001
1.0
1.0
1.0
0.0001

9
0.0001
1.0
1.0
1.0
0.0001
1.0
1.0
1.0
0.0001

9
0.0001
1.0
1.0
1.0
0.0001
1.0
1.0
1.0
0.0001

9
0.0001
1.0
1.0
1.0
0.0001
1.0
1.0
1.0
0.0001

9
0.0001
1.0
1.0
1.0
0.0001
1.0
1.0
1.0
0.0001

9
0.0001
1.0
1.0
1.0
0.0001
1.0
1.0
1.0
0.0001

9
0.0001
1.0
1.0
1.0
0.0001
1.0
1.0
1.0
0.0001

9
0.0001
1.0
1.0
1.0
0.0001
1.0
1.0
1.0
0.0001

9
0.0001
1.0
1.0
1.0
0.0001
1.0
1.0
1.0
0.0001

9
0.0001
1.0
1.0
1.0
0.0001
1.0
1.0
1.0
0.0001

9
0.0001
1.0
1.0
1.0
0.0001
1.0
1.0
1.0
0.0001

9
0.0001
1.0
1.0
1.0
0.0001
1.0
1.0
1.0
0.0001

9
0.0001
1.0
1.0
1.0
0.0001
1.0
1.0
1.0
0.0001

9
0.0001
1.0
1.0
1.0
0.0001
1.0
1.0
1.0
0.0001

9
0.0001
1.0
1.0
1.0
0.0001
1.0
1.0
1.0
0.0001

9
0.0001
1.0
1.0
1.0
0.0001
1.0
1.0
1.0
0.0001

9
0.0001
1.0
1.0
1.0
0.0001
1.0
1.0
1.0
0.0001

9
0.0001
1.0
1.0
1.0
0.0001
1.0
1.0
1.0
0.0001

9
0.0001
1.0
1.0
1.0
0.0001
1.0
1.0
1.0
0.0001

9
0.0001
1.0
1.0
1.0
0.0001
1.0
1.0
1.0
0.0001

9
0.0001
1.0
1.0
1.0
0.0001
1.0
1.0
1.0
0.0001

9
0.0001
1.0
1.0
1.0
0.0001
1.0
1.0
1.0
0.0001

9
0.0001
1.0
1.0
1.0
0.0001
1.0
1.0
1.0
0.0001

9
0.0001
1.0
1.0
1.0
0.0001
1.0
1.0
1.0
0.0001

9
0.0001
1.0
1.0
1.0
0.0001
1.0
1.0
1.0
0.0001

9
0.0001
1.0
1.0
1.0
0.0001
1.0
1.0
1.0
0.0001

9
0.0001
1.0
1.0
1.0
0.0001
1.0
1.0
1.0
0.0001

9
0.0001
1.0
1.0
1.0
0.0001
1.0
1.0
1.0
0.0001

9
0.0001
1.0
1.0
1.0
0.0001
1.0
1.0
1.0
0.0001

9
0.0001
1.0
1.0
1.0
0.0001
1.0
1.0
1.0
0.0001

9
0.0001
1.0
1.0
1.0
0.0001
1.0
1.0
1.0
0.0001

9
0.0001
1.0
1.0
1.0
0.0001
1.0
1.0
1.0
0.0001

9
0.0001
1.0
1.0
1.0
0.0001
1.0
1.0
1.0
0.0001

9
0.0001
1.0
1.0
1.0
0.0001
1.0
1.0
1.0
0.0001

9
0.0001
1.0
1.0
1.0
0.0001
1.0
1.0
1.0
0.0001

9
0.0001
1.0
1.0
1.0
0.0001
1.0
1.0
1.0
0.0001

9
0.0001
1.0
1.0
1.0
0.0001
1.0
1.0
1.0
0.0001

9
0.0001
1.0
1.0
1.0
0.0001
1.0
1.0
1.0
0.0001

9
0.0001
1.0
1.0
1.0
0.0001
1.0
1.0
1.0
0.0001

9
0.0001
1.0
1.0
1.0
0.0001
1.0
1.0
1.0
0.0001

9
0.0001
1.0
1.0
1.0
0.0001
1.0
1.0
1.0
0.0001

9
0.0001
1.0
1.0
1.0
0.0001
1.0
1.0
1.0
0.0001

9
0.0001
1.0
1.0
1.0
0.0001
1.0
1.0
1.0
0.0001

9
0.0001
1.0
1.0
1.0
0.0001
1.0
1.0
1.0
0.0001

9
0.0001
1.0
1.0
1.0
0.0001
1.0
1.0
1.0
0.0001

9
0.0001
1.0
1.0
1.0
0.0001
1.0
1.0
1.0
0.0001

9
0.0001
1.0
1.0
1.0
0.0001
1.0
1.0
1.0
0.0001

9
0.0001
1.0
1.0
1.0
0.0001
1.0
1.0
1.0
0.0001

9
0.0001
1.0
1.0
1.0
0.0001
1.0
1.0
1.0
0.0001

9
0.0001
1.0
1.0
1.0
0.0001
1.0
1.0
1.0
0.0001

9
0.0001
1.0
1.0
1.0
0.0001
1.0
1.0
1.0
0.0001

9
0.0001
1.0
1.0
1.0
0.0001
1.0
1.0
1.0
0.0001

9
0.0001
1.0
1.0
1.0
0.0001
1.0
1.0
1.0
0.0001

9
0.0001
1.0
1.0
1.0
0.0001
1.0
1.0
1.0
0.0001

9
0.0001
1.0
1.0
1.0
0.0001
1.0
1.0
1.0
0.0001

9
0.0001
1.0
1.0
1.0
0.0001
1.0
1.0
1.0
0.0001

9
0.0001
1.0
1.0
1.0
0.0001
1.0
1.0
1.0
0.0001

9
0.0001
1.0
1.0
1.0
0.0001
1.0
1.0
1.0
0.0001

9
0.0001
1.0
1.0
1.0
0.0001
1.0
1.0
1.0
0.0001

9
0.0001
1.0
1.0
1.0
0.0001
1.0
1.0
1.0
0.0001

9
0.0001
1.0
1.0
1.0
0.0001
1.0
1.0
1.0
0.0001

9
0.0001
1.0
1.0
1.0
0.0001
1.0
1.0
1.0
0.0001

9
0.0001
1.0
1.0
1.0
0.0001
1.0
1.0
1.0
0.0001

9
0.0001
1.0
1.0
1.0
0.0001
1.0
1.0
1.0
0.0001

9
0.0001
1.0
1.0
1.0
0.0001
1.0
1.0
1.0
0.0001

9
0.0001
1.0
1.0
1.0
0.0001
1.0
1.0
1.0
0.0001

9
0.0001
1.0
1.0
1.0
0.0001
1.0
1.0
1.0
0.0001

9
0.0001
1.0
1.0
1.0
0.0001
1.0
1.0
1.0
0.0001

9
0.0001
1.0
1.0
1.0
0.0001
1.0
1.0
1.0
0.0001

9
0.0001
1.0
1.0
1.0
0.0001
1.0
1.0
1.0
0.0001

9
0.0001
1.0
1.0
1.0
0.0001
1.0
1.0
1.0
0.0001

9
0.0001
1.0
1.0
1.0
0.0001
1.0
1.0
1.0
0.0001

9
0.0001
1.0
1.0
1.0
0.0001
1.0
1.0
1.0
0.0001

9
0.0001
1.0
1.0
1.0
0.0001
1.0
1.0
1.0
0.0001

9
0.0001
1.0
1.0
1.0
0.0001
1.0
1.0
1.0
0.0001

9
0.0001
1.0
1.0
1.0
0.0001
1.0
1.0
1.0
0.0001

9
0.0001
1.0
1.0
1.0
0.0001
1.0
1.0
1.0
0.0001

9
0.0001
1.0
1.0
1.0
0.0001
1.0
1.0
1.0
0.0001

9
0.0001
1.0
1.0
1.0
0.0001
1.0
1.0
1.0
0.0001

9
0.0001
1.0
1.0
1.0
0.0001
1.0
1.0
1.0
0.0001

9
0.0001
1.0
1.0
1.0
0.0001
1.0
1.0
1.0
0.0001

9
0.0001
1.0
1.0
1.0
0.0001
1.0
1.0
1.0
0.0001

9
0.0001
1.0
1.0
1.0
0.0001
1.0
1.0
1.0
0.0001

9
0.0001
1.0
1.0
1.0
0.0001
1.0
1.0
1.0
0.0001

9
0.0001
1.0
1.0
1.0
0.0001
1.0
1.0
1.0
0.0001

9
0.0001
1.0
1.0
1.0
0.0001
1.0
1.0
1.0
0.0001

9
0.0001
1.0
1.0
1.0
0.0001
1.0
1.0
1.0
0.0001

9
0.0001
1.0
1.0
1.0
0.0001
1.0
1.0
1.0
0.0001

9
0.0001
1.0
1.0
1.0
0.0001
1.0
1.0
1.0
0.0001

9
0.0001
1.0
1.0
1.0
0.0001
1.0
1.0
1.0
0.0001

9
0.0001
1.0
1.0
1.0
0.0001
1.0
1.0
1.0
0.0001

9
0.0001
1.0
1.0
1.0
0.0001
1.0
1.0
1.0
0.0001

9
0.0001
1.0
1.0
1.0
0.0001
1.0
1.0
1.0
0.0001

9
0.0001
1.0
1.0
1.0
0.0001
1.0
1.0
1.0
0.0001

9
0.0001
1.0
1.0
1.0
0.0001
1.0
1.0
1.0
0.0001

9
0.0001
1.0
1.0
1.0
0.0001
1.0
1.0
1.0
0.0001

9
0.0001
1.0
1.0
1.0
0.0001
1.0
1.0
1.0
0.0001

9
0.0001
1.0
1.0
1.0
0.0001
1.0
1.0
1.0
0.0001

9
0.0001
1.0
1.0
1.0
0.0001
1.0
1.0
1.0
0.0001

9
0.0001
1.0
1.0
1.0
0.0001
1.0
1.0
1.0
0.0001

9
0.0001
1.0
1.0
1.0
0.0001
1.0
1.0
1.0
0.0001

9
0.0001
1.0
1.0
1.0
0.0001
1.0
1.0
1.0
0.0001

9
0.0001
1.0
1.0
1.0
0.0001
1.0
1.0
1.0
0.0001

9
0.0001
1.0
1.0
1.0
0.0001
1.0
1.0
1.0
0.0001

9
0.0001
1.0
1.0
1.0
0.0001
1.0
1.0
1.0
0.0001

9
0.0001
1.0
1.0
1.0
0.0001
1.0
1.0
1.0
0.0001

9
0.0001
1.0
1.0
1.0
0.0001
1.0
1.0
1.0
0.0001

9
0.0001
1.0
1.0
1.0
0.0001
1.0
1.0
1.0
0.0001

9
0.0001
1.0
1.0
1.0
0.0001
1.0
1.0
1.0
0.0001

9
0.0001
1.0
1.0
1.0
0.0001
1.0
1.0
1.0
0.0001

9
0.0001
1.0
1.0
1.0
0.0001
1.0
1.0
1.0
0.0001

9
0.0001
1.0
1.0
1.0
0.0001
1.0
1.0
1.0
0.0001

9
0.0001
1.0
1.0
1.0
0.0001
1.0
1.0
1.0
0.0001

9
0.0001
1.0
1.0
1.0
0.0001
1.0
1.0
1.0
0.0001

9
0.0001
1.0
1.0
1.0
0.0001
1.0
1.0
1.0
0.0001

9
0.0001
1.0
1.0
1.0
0.0001
1.0
1.0
1.0
0.0001

9
0.0001
1.0
1.0
1.0
0.0001
1.0
1.0
1.0
0.0001

9
0.0001
1.0
1.0
1.0
0.0001
1.0
1.0
1.0
0.0001

9
0.0001
1.0
1.0
1.0
0.0001
1.0
1.0
1.0
0.0001

9
0.0001
1.0
1.0
1.0
0.0001
1.0
1.0
1.0
0.0001

9
0.0001
1.0
1.0
1.0
0.0001
1.0
1.0
1.0
0.0001

9
0.0001
1.0
1.0
1.0
0.0001
1.0
1.0
1.0
0.0001

9
0.0001
1.0
1.0
1.0
0.0001
1.0
1.0
1.0
0.0001

9
0.0001
1.0
1.0
1.0
0.0001
1.0
1.0
1.0
0.0001

9
0.0001
1.0
1.0
1.0
0.0001
1.0
1.0
1.0
0.0001

9
0.0001
1.0
1.0
1.0
0.0001
1.0
1.0
1.0
0.0001

9
0.0001
1.0
1.0
1.0
0.0001
1.0
1.0
1.0
0.0001

9
0.0001
1.0
1.0
1.0
0.0001
1.0
1.0
1.0
0.0001

9
0.0001
1.0
1.0
1.0
0.0001
1.0
1.0
1.0
0.0001

9
0.0001
1.0
1.0
1.0
0.0001
1.0
1.0
1.0
0.0001

9
0.0001
1.0
1.0
1.0
0.0001
1.0
1.0
1.0
0.0001

9
0.0001
1.0
1.0
1.0
0.0001
1.0
1.0
1.0
0.0001

9
0.0001
1.0
1.0
1.0
0.0001
1.0
1.0
1.0
0.0001

9
0.0001
1.0
1.0
1.0
0.0001
1.0
1.0
1.0
0.0001

9
0.0001
1.0
1.0
1.0
0.0001
1.0
1.0
1.0
0.0001

9
0.0001
1.0
1.0
1.0
0.0001
1.0
1.0
1.0
0.0001

9
0.0001
1.0
1.0
1.0
0.0001
1.0
1.0
1.0
0.0001

9
0.0001
1.0
1.0
1.0
0.0001
1.0
1.0
1.0
0.0001

9
0.0001
1.0
1.0
1.0
0.0001
1.0
1.0
1.0
0.0001

9
0.0001
1.0
1.0
1.0
0.0001
1.0
1.0
1.0
0.0001

9
0.0001
1.0
1.0
1.0
0.0001
1.0
1.0
1.0
0.0001

9
0.0001
1.0
1.0
1.0
0.0001
1.0
1.0
1.0
0.0001

9
0.0001
1.0
1.0
1.0
0.0001
1.0
1.0
1.0
0.0001

9
0.0001
1.0
1.0
1.0
0.0001
1.0
1.0
1.0
0.0001

9
0.0001
1.0
1.0
1.0
0.0001
1.0
1.0
1.0
0.0001

9
0.0001
1.0
1.0
1.0
0.0001
1.0
1.0
1.0
0.0001

9
0.0001
1.0
1.0
1.0
0.0001
1.0
1.0
1.0
0.0001

9
0.0001
1.0
1.0
1.0
0.0001
1.0
1.0
1.0
0.0001

9
0.0001
1.0
1.0
1.0
0.0001
1.0
1.0
1.0
0.0001

9
0.0001
1.0
1.0
1.0
0.0001
1.0
1.0
1.0
0.0001

9
0.0001
1.0
1.0
1.0
0.0001
1.0
1.0
1.0
0.0001

9
0.0001
1.0
1.0
1.0
0.0001
1.0
1.0
1.0
0.0001

9
0.0001
1.0
1.0
1.0
0.0001
1.0
1.0
1.0
0.0001

9
0.0001
1.0
1.0
1.0
0.0001
1.0
1.0
1.0
0.0001

9
0.0001
1.0
1.0
1.0
0.0001
1.0
1.0
1.0
0.0001

9
0.0001
1.0
1.0
1.0
0.0001
1.0
1.0
1.0
0.0001

9
0.0001
1.0
1.0
1.0
0.0001
1.0
1.0
1.0
0.0001

9
0.0001
1.0
1.0
1.0
0.0001
1.0
1.0
1.0
0.0001

9
0.0001
1.0
1.0
1.0
0.0001
1.0
1.0
1.0
0.0001

9
0.0001
1.0
1.0
1.0
0.0001
1.0
1.0
1.0
0.0001

9
0.0001
1.0
1.0
1.0
0.0001
1.0
1.0
1.0
0.0001

9
0.0001
1.0
1.0
1.0
0.0001
1.0
1.0
1.0
0.0001

9
0.0001
1.0
1.0
1.0
0.0001
1.0
1.0
1.0
0.0001

9
0.0001
1.0
1.0
1.0
0.0001
1.0
1.0
1.0
0.0001

9
0.0001
1.0
1.0
1.0
0.0001
1.0
1.0
1.0
0.0001

9
0.0001
1.0
1.0
1.0
0.0001
1.0
1.0
1.0
0.0001

9
0.0001
1.0
1.0
1.0
0.0001
1.0
1.0
1.0
0.0001

9
0.0001
1.0
1.0
1.0
0.0001
1.0
1.0
1.0
0.0001

9
0.0001
1.0
1.0
1.0
0.0001
1.0
1.0
1.0
0.0001

9
0.0001
1.0
1.0
1.0
0.0001
1.0
1.0
1.0
0.0001

9
0.0001
1.0
1.0
1.0
0.0001
1.0
1.0
1.0
0.0001

9
0.0001
1.0
1.0
1.0
0.0001
1.0
1.0
1.0
0.0001

9
0.0001
1.0
1.0
1.0
0.0001
1.0
1.0
1.0
0.0001

9
0.0001
1.0
1.0
1.0
0.0001
1.0
1.0
1.0
0.0001

9
0.0001
1.0
1.0
1.0
0.0001
1.0
1.0
1.0
0.0001

9
0.0001
1.0
1.0
1.0
0.0001
1.0
1.0
1.0
0.0001

9
0.0001
1.0
1.0
1.0
0.0001
1.0
1.0
1.0
0.0001

9
0.0001
1.0
1.0
1.0
0.0001
1.0
1.0
1.0
0.0001

9
0.0001
1.0
1.0
1.0
0.0001
1.0
1.0
1.0
0.0001

9
0.0001
1.0
1.0
1.0
0.0001
1.0
1.0
1.0
0.0001

9
0.0001
1.0
1.0
1.0
0.0001
1.0
1.0
1.0
0.0001

9
0.0001
1.0
1.0
1.0
0.0001
1.0
1.0
1.0
0.0001

9
0.0001
1.0
1.0
1.0
0.0001
1.0
1.0
1.0
0.0001

